NAME : XML100_1375_09
DIMENSION : 101
NB_CLUSTERS : 5
CLUSTERING_ALG : KMedoids
CLUSTERING_PARAMS : k(4)
CLUSTERS
1 0
2 1 3 4 5 11 13 20 26 29 39 40 43 49 52 54 57 58 59 60 61 79 80 81 84 88 89 91 95
3 2 6 14 18 19 21 22 30 38 46 48 69 70 72 73 74 83
4 8 15 17 23 24 27 32 34 36 44 45 47 50 55 64 75 76 82 85 87 96 97
5 7 9 10 12 16 25 28 31 33 35 37 41 42 51 53 56 62 63 65 66 67 68 71 77 78 86 90 92 93 94 98 99 100
EOF